
Log started (V12.9.0.0) Thu Sep 10 16:41:37 2020

New value for parallel optimization mode: -1
New value for mixed integer optimality gap tolerance: 0.02
New value for integrality tolerance: 1e-12
New value for deterministic time limit in ticks: 45000

Problem 'C:\Users\llavin\Desktop\test826\logs\tmpdib7_9q2.pyomo.lp' read.
Read time = 0.50 sec. (28.97 ticks)
MIP start file 'C:\Users\llavin\Desktop\test826\logs\tmpv8vk0ui_.cplex.mst' read.

Problem name         : C:\Users\llavin\Desktop\test826\logs\tmpdib7_9q2.pyomo.lp
Objective sense      : Maximize
Variables            :  109243  [Nneg: 1,  Box: 45502,  Free: 8928,
                                 Binary: 54812]
Objective nonzeros   :   19733
Linear constraints   :  246963  [Less: 82886,  Greater: 118460,  Equal: 45617]
  Nonzeros           :  621605
  RHS nonzeros       :  135881

Variables            : Min LB: -5000.000        Max UB: 1000000.       
Objective nonzeros   : Min   : 0.001000000      Max   : 208.3333       
Linear constraints   :
  Nonzeros           : Min   : 0.001000000      Max   : 1000000.       
  RHS nonzeros       : Min   : 0.001000000      Max   : 1000000.       
CPXPARAM_Parallel                                -1
CPXPARAM_DetTimeLimit                            45000
CPXPARAM_MIP_Tolerances_MIPGap                   0.02
CPXPARAM_MIP_Tolerances_Integrality              9.9999999999999998e-13
Warning:  No solution found from 1 MIP starts.
Retaining values of one MIP start for possible repair.
Tried aggregator 3 times.
MIP Presolve eliminated 176489 rows and 38649 columns.
MIP Presolve added 7020 rows and 0 columns.
MIP Presolve modified 51748 coefficients.
Aggregator did 25907 substitutions.
Reduced MIP has 51587 rows, 43791 columns, and 164393 nonzeros.
Reduced MIP has 17302 binaries, 0 generals, 0 SOSs, and 0 indicators.
Presolve time = 0.63 sec. (396.86 ticks)
Probing fixed 885 vars, tightened 16918 bounds.
Probing time = 0.44 sec. (19.82 ticks)
Tried aggregator 2 times.
MIP Presolve eliminated 2054 rows and 1774 columns.
MIP Presolve modified 6406 coefficients.
Aggregator did 96 substitutions.
Reduced MIP has 49437 rows, 41921 columns, and 144807 nonzeros.
Reduced MIP has 16417 binaries, 0 generals, 0 SOSs, and 0 indicators.
Presolve time = 0.27 sec. (257.77 ticks)
Probing fixed 0 vars, tightened 512 bounds.
Probing time = 0.59 sec. (17.78 ticks)
Clique table members: 83988.
MIP emphasis: balance optimality and feasibility.
MIP search method: dynamic search.
Parallel mode: opportunistic, using up to 32 threads.
Root relaxation solution time = 0.47 sec. (349.17 ticks)
